Normalized Data/p03_27_normalized_splitx10_0.vrp
NAME:p03_27_NORMALIZED_splitx10_
BEST_KNOWN: 0
COMMENT: 0
DIMENSION: 414
CAPACITY: 1000
EDGE_WEIGHT_FORMAT: FUNCTION
EDGE_WEIGHT_TYPE: EXACT_2D
NODE_COORD_SECTION
1 0.00000 0.00000
2 31 -12
3 31 -12
4 31 -12
5 31 -12
6 31 -12
7 31 -12
8 -35 8
9 2 13
10 2 13
11 2 13
12 2 13
13 2 13
14 2 13
15 2 13
16 -38 -44
17 -38 -44
18 -38 -44
19 -38 -44
20 46 21
21 46 21
22 46 21
23 46 21
24 46 21
25 46 21
26 46 21
27 -7 -36
28 -7 -36
29 -36 46
30 -36 46
31 -36 46
32 -36 46
33 -36 46
34 -34 0
35 -34 0
36 -34 0
37 -34 0
38 31 -29
39 31 -29
40 31 -29
41 4 49
42 4 49
43 38 4
44 38 4
45 -10 3
46 -10 3
47 -10 3
48 -10 3
49 -10 3
50 -10 3
51 -10 3
52 43 -39
53 43 -39
54 43 -39
55 43 -39
56 43 -39
57 -41 46
58 -41 46
59 -41 46
60 -41 46
61 -41 46
62 13 -43
63 13 -43
64 13 -43
65 13 -43
66 -23 -48
67 -23 -48
68 -23 -48
69 37 40
70 37 40
71 37 40
72 37 40
73 -17 -48
74 -17 -48
75 -17 -48
76 -17 -48
77 -17 -48
78 -21 -13
79 -21 -13
80 -21 -13
81 -21 -13
82 -21 -13
83 -21 -13
84 -21 26
85 -21 26
86 -50 7
87 -50 7
88 -50 7
89 36 -20
90 36 -20
91 36 -20
92 36 -20
93 36 -20
94 36 -20
95 3 10
96 3 10
97 3 10
98 3 10
99 3 10
100 -40 -33
101 -40 -33
102 -40 -33
103 -40 -33
104 -18 -30
105 -18 -30
106 -18 -30
107 -18 -30
108 -18 -30
109 -18 -30
110 1 7
111 1 7
112 9 41
113 9 41
114 9 41
115 9 41
116 9 41
117 9 41
118 9 41
119 45 43
120 -1 45
121 -1 45
122 -1 45
123 -1 45
124 39 47
125 39 47
126 -22 -7
127 -22 -7
128 -35 22
129 -35 22
130 -35 22
131 -35 22
132 -35 22
133 -35 22
134 7 -5
135 7 -5
136 7 -5
137 7 -5
138 45 16
139 45 16
140 45 16
141 -43 -16
142 -43 -16
143 -43 -16
144 -43 -16
145 -43 -16
146 11 -24
147 11 -24
148 11 -24
149 11 -24
150 11 -24
151 30 28
152 30 28
153 30 28
154 30 28
155 2 -48
156 2 -48
157 2 -48
158 2 -48
159 46 45
160 46 45
161 46 45
162 46 45
163 46 45
164 -22 20
165 -22 20
166 45 12
167 45 12
168 45 12
169 -49 24
170 -49 24
171 -49 24
172 31 27
173 31 27
174 31 27
175 31 27
176 31 27
177 31 27
178 43 -43
179 43 -43
180 43 -43
181 -17 -20
182 7 -48
183 7 -48
184 7 -48
185 -46 49
186 -46 49
187 0 49
188 0 49
189 0 49
190 0 49
191 0 49
192 0 49
193 0 49
194 3 29
195 3 29
196 3 29
197 3 29
198 -28 -21
199 -28 -21
200 -28 -21
201 -30 13
202 -30 13
203 -30 13
204 -45 -49
205 -45 -49
206 -45 -49
207 -45 -49
208 -45 -49
209 -45 -49
210 -12 39
211 -12 39
212 -12 39
213 -12 39
214 -12 39
215 -12 39
216 -12 -14
217 -12 -14
218 -12 -14
219 -12 -14
220 -12 -14
221 6 2
222 6 2
223 6 2
224 6 2
225 37 2
226 37 2
227 37 2
228 37 2
229 37 2
230 -2 47
231 -2 47
232 -2 47
233 6 -33
234 6 -33
235 6 -33
236 6 -33
237 25 38
238 25 38
239 25 38
240 -14 43
241 -14 43
242 -14 43
243 -14 43
244 -14 43
245 -14 43
246 -37 -32
247 -37 -32
248 -37 -32
249 -37 -32
250 -37 -32
251 20 35
252 20 35
253 20 35
254 42 37
255 42 37
256 42 37
257 -27 -2
258 -27 -2
259 -27 -2
260 -27 -2
261 -27 -2
262 32 49
263 32 49
264 32 49
265 32 49
266 32 49
267 3 33
268 3 33
269 3 33
270 3 33
271 -14 44
272 -14 44
273 -14 44
274 -14 44
275 -14 44
276 36 -39
277 36 -39
278 36 -39
279 -34 -1
280 -34 -1
281 -34 -1
282 -34 -1
283 37 19
284 37 19
285 37 19
286 37 19
287 -4 -6
288 -4 -6
289 -4 -6
290 -4 -6
291 45 3
292 45 3
293 45 3
294 45 3
295 4 -7
296 4 -7
297 4 -7
298 4 -7
299 -33 6
300 -33 6
301 -33 6
302 -39 38
303 -39 38
304 -39 38
305 -39 38
306 -39 38
307 -39 38
308 24 -3
309 24 -3
310 27 -44
311 27 -44
312 27 -44
313 27 -44
314 27 -44
315 27 -44
316 27 -44
317 -45 48
318 -45 48
319 -45 48
320 -45 48
321 29 -2
322 29 -2
323 29 -2
324 29 -2
325 29 -2
326 -3 30
327 -3 30
328 -3 30
329 -38 38
330 -38 38
331 -4 47
332 -4 47
333 -4 47
334 -4 47
335 -2 9
336 -2 9
337 -2 9
338 -2 9
339 13 19
340 13 19
341 13 19
342 13 19
343 18 -42
344 18 -42
345 -1 -9
346 -1 -9
347 -1 -9
348 -1 -9
349 -1 -9
350 -1 -9
351 -1 -9
352 30 12
353 30 12
354 30 12
355 25 -41
356 25 -41
357 25 -41
358 -48 -42
359 -48 -42
360 -48 -42
361 -48 -42
362 -48 -42
363 33 -17
364 33 -17
365 33 -17
366 33 -17
367 33 -17
368 -2 36
369 -2 36
370 -2 36
371 -2 36
372 -2 36
373 -2 36
374 -11 1
375 -11 1
376 -11 1
377 -11 1
378 -39 27
379 -39 27
380 -39 27
381 -39 27
382 -39 27
383 -39 27
384 28 -40
385 28 -40
386 28 -40
387 28 -40
388 28 -40
389 -46 4
390 -46 4
391 -46 4
392 -46 4
393 1 -23
394 1 -23
395 1 -23
396 1 -23
397 1 -23
398 -21 -16
399 -21 -16
400 -21 -16
401 23 -15
402 23 -15
403 23 -15
404 23 -15
405 23 -15
406 23 -15
407 23 -15
408 27 14
409 27 14
410 27 14
411 27 14
412 -40 -35
413 -40 -35
414 -40 -35
DEMAND_SECTION
1 0
2 200
3 50
4 10
5 10
6 10
7 10
8 200
9 200
10 200
11 50
12 10
13 10
14 10
15 10
16 200
17 100
18 50
19 10
20 200
21 200
22 50
23 10
24 10
25 10
26 10
27 200
28 200
29 200
30 50
31 10
32 10
33 10
34 200
35 100
36 10
37 10
38 200
39 200
40 10
41 200
42 200
43 200
44 10
45 200
46 100
47 50
48 10
49 10
50 10
51 10
52 100
53 10
54 10
55 10
56 10
57 200
58 200
59 10
60 10
61 10
62 200
63 10
64 10
65 10
66 200
67 100
68 50
69 200
70 100
71 10
72 10
73 200
74 100
75 10
76 10
77 10
78 200
79 200
80 50
81 10
82 10
83 10
84 200
85 100
86 200
87 50
88 10
89 200
90 100
91 10
92 10
93 10
94 10
95 100
96 50
97 10
98 10
99 10
100 100
101 10
102 10
103 10
104 100
105 50
106 10
107 10
108 10
109 10
110 200
111 100
112 200
113 100
114 50
115 10
116 10
117 10
118 10
119 200
120 200
121 10
122 10
123 10
124 200
125 50
126 200
127 50
128 200
129 200
130 10
131 10
132 10
133 10
134 200
135 100
136 10
137 10
138 200
139 50
140 10
141 200
142 50
143 10
144 10
145 10
146 200
147 100
148 50
149 10
150 10
151 200
152 200
153 50
154 10
155 100
156 50
157 10
158 10
159 200
160 100
161 10
162 10
163 10
164 100
165 50
166 100
167 50
168 10
169 200
170 100
171 50
172 100
173 50
174 10
175 10
176 10
177 10
178 200
179 200
180 50
181 200
182 200
183 100
184 50
185 200
186 200
187 200
188 200
189 50
190 10
191 10
192 10
193 10
194 200
195 50
196 10
197 10
198 200
199 200
200 10
201 200
202 200
203 100
204 200
205 100
206 50
207 10
208 10
209 10
210 200
211 100
212 10
213 10
214 10
215 10
216 200
217 100
218 50
219 10
220 10
221 200
222 200
223 50
224 10
225 200
226 10
227 10
228 10
229 10
230 200
231 100
232 10
233 200
234 10
235 10
236 10
237 100
238 10
239 10
240 100
241 50
242 10
243 10
244 10
245 10
246 200
247 100
248 10
249 10
250 10
251 200
252 200
253 10
254 200
255 200
256 10
257 100
258 50
259 10
260 10
261 10
262 200
263 10
264 10
265 10
266 10
267 200
268 100
269 50
270 10
271 100
272 10
273 10
274 10
275 10
276 200
277 50
278 10
279 100
280 10
281 10
282 10
283 200
284 50
285 10
286 10
287 100
288 50
289 10
290 10
291 200
292 100
293 50
294 10
295 200
296 10
297 10
298 10
299 200
300 100
301 50
302 200
303 100
304 10
305 10
306 10
307 10
308 100
309 50
310 200
311 200
312 50
313 10
314 10
315 10
316 10
317 200
318 10
319 10
320 10
321 200
322 100
323 10
324 10
325 10
326 200
327 200
328 50
329 200
330 10
331 200
332 50
333 10
334 10
335 100
336 10
337 10
338 10
339 200
340 200
341 50
342 10
343 100
344 50
345 200
346 200
347 50
348 10
349 10
350 10
351 10
352 200
353 50
354 10
355 200
356 50
357 10
358 100
359 50
360 10
361 10
362 10
363 200
364 100
365 10
366 10
367 10
368 200
369 50
370 10
371 10
372 10
373 10
374 200
375 100
376 10
377 10
378 200
379 50
380 10
381 10
382 10
383 10
384 200
385 200
386 10
387 10
388 10
389 200
390 10
391 10
392 10
393 200
394 50
395 10
396 10
397 10
398 200
399 100
400 10
401 200
402 200
403 50
404 10
405 10
406 10
407 10
408 100
409 10
410 10
411 10
412 200
413 100
414 10
DEPOT_SECTION
1
-1
EOF