Normalized Data/p03_27_normalized_splitx10_0.sol
413 -5 1 2 4 6 3 91 90 92 93 88 89 365 363 366 364 362 -7 85 86 87 390 391 389 388 144 140 141 142 143 -14 12 10 8 9 13 11 341 340 338 339 -31 32 28 30 29 184 185 316 318 317 319 382 378 129 132 -38 37 39 387 383 385 384 386 342 343 -41 40 192 191 189 186 190 187 188 230 -43 166 167 165 138 139 137 22 24 21 20 19 23 25 283 285 -45 47 50 49 44 48 46 375 373 374 376 219 218 215 217 -54 52 51 53 55 177 178 179 275 276 277 147 146 -57 56 58 60 59 302 304 306 305 303 301 329 328 -75 74 72 73 76 65 67 66 107 108 103 104 106 105 289 286 -82 81 77 80 78 79 197 399 397 398 -83 84 244 239 241 242 240 243 274 271 270 272 273 209 211 213 214 212 210 336 337 335 -109 110 94 97 98 96 95 223 221 222 220 -119 121 122 120 229 231 331 330 332 333 368 369 367 370 372 371 -126 125 279 280 281 278 34 33 36 35 256 257 258 260 259 -131 128 130 127 381 377 380 379 170 168 169 -133 134 294 346 347 350 349 344 345 348 -136 135 406 405 402 403 404 401 400 321 322 323 320 324 308 307 -149 148 145 311 314 310 312 315 313 309 354 355 356 296 297 295 -151 150 172 171 174 173 282 284 353 352 408 407 409 410 -153 152 70 71 68 69 124 123 264 262 263 265 261 238 237 236 -156 157 155 154 183 182 181 61 64 62 63 232 234 235 233 -162 158 161 159 160 118 254 253 255 175 176 -163 164 200 202 201 299 298 300 -194 267 268 113 111 116 112 117 115 114 250 252 251 -196 195 193 266 269 326 325 327 334 -198 199 99 101 100 102 413 412 411 248 246 247 249 245 -216 180 26 27 392 394 393 395 396 -226 225 228 227 224 292 293 290 291 42 351 -288 287 17 15 18 16 205 207 208 206 204 203 361 358 359 357 360 0 





OBJ=
2932.972
BEST_KNOWN=
0.000